\ LP format - for model browsing. Use MPS format to capture full model detail.
Maximize
  10 x_1 + 7 x_2 + 8 x_3 + 8 x_4 + x_5 + 10 x_6 + 9 x_7 + 10 x_8 + 5 x_9
   + 5 x_10 + 10 x_11 + 7 x_12 + 9 x_13 + 7 x_14 + 4 x_15 + 9 x_16 + 6 x_17
   + 2 x_18 + 5 x_19 + 3 x_20
Subject To
 C_1: 4 x_1 + 9 x_2 + 5 x_3 + 10 x_4 + 5 x_5 + 4 x_6 + 4 x_7 + 2 x_8
   + 3 x_9 + x_10 + 7 x_11 + 4 x_12 + 10 x_13 + 6 x_14 + x_15 + 10 x_16
   + 6 x_17 + 9 x_18 + x_19 + 2 x_20 <= 51
 C_2: 6 x_1 + 10 x_2 + 10 x_3 + 6 x_4 + 8 x_5 + 3 x_6 + 6 x_7 + 3 x_8
   + 6 x_9 + 10 x_10 + 7 x_11 + 9 x_12 + x_13 + 2 x_14 + x_15 + 7 x_16
   + 7 x_17 + 6 x_18 + 9 x_19 + 9 x_20 <= 63
 C_3: 6 x_1 + 7 x_2 + 2 x_3 + 5 x_4 + 2 x_5 + 4 x_6 + 6 x_7 + 9 x_8 + 5 x_9
   + 6 x_10 + 10 x_11 + 2 x_12 + 7 x_13 + 9 x_14 + 7 x_15 + 4 x_16 + 3 x_17
   + 3 x_18 + 8 x_19 + 9 x_20 <= 57
 C_4: 4 x_1 + 5 x_2 + 9 x_3 + 6 x_4 + 8 x_5 + 9 x_6 + 3 x_7 + 4 x_8 + 4 x_9
   + 3 x_10 + 4 x_11 + 2 x_12 + 9 x_13 + 7 x_14 + 8 x_15 + 2 x_16 + 2 x_17
   + 4 x_18 + x_19 + 8 x_20 <= 51
 C_5: 9 x_1 + 2 x_2 + 9 x_3 + 6 x_4 + 3 x_5 + 6 x_6 + x_7 + 5 x_8 + 10 x_9
   + 9 x_10 + 5 x_11 + 5 x_12 + 5 x_13 + 4 x_14 + 3 x_15 + 2 x_16 + 2 x_17
   + 5 x_18 + 7 x_19 + 8 x_20 <= 53
Bounds
Binaries
 x_1 x_2 x_3 x_4 x_5 x_6 x_7 x_8 x_9 x_10 x_11 x_12 x_13 x_14 x_15 x_16
 x_17 x_18 x_19 x_20
End
